
******************************************************************************
This program contains Ipopt, a library for large-scale nonlinear optimization.
 Ipopt is released as open source code under the Eclipse Public License (EPL).
         For more information visit http://projects.coin-or.org/Ipopt

This version of Ipopt was compiled from source code available at
    https://github.com/IDAES/Ipopt as part of the Institute for the Design of
    Advanced Energy Systems Process Systems Engineering Framework (IDAES PSE
    Framework) Copyright (c) 2018-2019. See https://github.com/IDAES/idaes-pse.

This version of Ipopt was compiled using HSL, a collection of Fortran codes
    for large-scale scientific computation.  All technical papers, sales and
    publicity material resulting from use of the HSL codes within IPOPT must
    contain the following acknowledgement:
        HSL, a collection of Fortran codes for large-scale scientific
        computation. See http://www.hsl.rl.ac.uk.
******************************************************************************

This is Ipopt version 3.13.2, running with linear solver ma27.

Number of nonzeros in equality constraint Jacobian...:      928
Number of nonzeros in inequality constraint Jacobian.:        0
Number of nonzeros in Lagrangian Hessian.............:      806

Total number of variables............................:      403
                     variables with only lower bounds:      124
                variables with lower and upper bounds:      217
                     variables with only upper bounds:        0
Total number of equality constraints.................:      402
Total number of inequality constraints...............:        0
        inequality constraints with only lower bounds:        0
   inequality constraints with lower and upper bounds:        0
        inequality constraints with only upper bounds:        0

iter    objective    inf_pr   inf_du lg(mu)  ||d||  lg(rg) alpha_du alpha_pr  ls
   0  0.0000000e+00 1.12e+00 8.88e-16  -1.0 0.00e+00    -  0.00e+00 0.00e+00   0
   1  1.1296164e+00 7.43e-01 4.10e+04  -1.0 1.57e+05    -  4.69e-01 4.11e-01h  1
   2  1.1990730e+00 7.29e-01 4.02e+04  -1.0 1.08e+05    -  5.70e-01 1.98e-02h  1
   3  1.8358249e+00 6.29e-01 3.50e+04  -1.0 1.42e+05    -  5.86e-01 1.44e-01h  1
   4  1.1689993e+01 1.94e-01 4.43e+03  -1.0 1.25e+05    -  7.66e-01 9.90e-01h  1
   5  1.2999739e+01 2.00e-02 6.62e+02  -1.0 1.05e+04    -  8.41e-01 9.90e-01h  1
   6  1.3021135e+01 4.27e-04 5.66e+01  -1.0 3.15e+02    -  9.90e-01 9.90e-01h  1
   7  1.3021948e+01 4.14e-04 1.94e+07  -1.0 5.57e+02    -  9.90e-01 3.09e-02f  6
   8  1.3235663e+01 2.56e-03 1.64e+07  -1.0 3.64e+04    -  9.56e-02 1.24e-01f  4
   9  1.3258429e+01 1.38e-04 1.68e+05  -1.0 4.86e+02    -  9.90e-01 9.90e-01h  1
iter    objective    inf_pr   inf_du lg(mu)  ||d||  lg(rg) alpha_du alpha_pr  ls
  10  1.3262023e+01 2.53e-06 2.38e+07  -1.0 7.60e+01    -  1.00e+00 9.90e-01h  1
  11  1.3261979e+01 2.52e-08 2.38e+09  -1.0 9.19e-01    -  1.00e+00 9.90e-01h  1
  12  1.3261979e+01 2.52e-10 2.38e+11  -1.0 9.31e-03    -  1.00e+00 9.90e-01h  1
In iteration 12, 31 Slacks too small, adjusting variable bounds
  13  1.3261979e+01 5.56e-12 2.38e+13  -1.0 9.31e-05    -  1.00e+00 9.90e-01h  1
  14  1.3261979e+01 4.05e-12 2.34e-01  -1.0 9.10e-07    -  1.00e+00 1.00e+00h  1
  15  1.3261971e+01 4.83e-12 2.40e+13  -9.0 7.90e+03    -  9.86e-01 1.94e-05f 16
  16  1.3261971e+01 5.98e-12 2.43e+13  -9.0 6.14e+03    -  9.90e-01 7.82e-07f 21
  17  1.3261967e+01 4.91e-12 2.43e+13  -9.0 5.54e+03    -  9.94e-01 1.39e-05f 17
  18  1.3261966e+01 6.52e-12 2.43e+13  -9.0 5.30e+03    -  1.00e+00 7.24e-06f 18
  19  1.3261964e+01 4.49e-12 2.43e+13  -9.0 5.19e+03    -  1.00e+00 7.40e-06f 18
iter    objective    inf_pr   inf_du lg(mu)  ||d||  lg(rg) alpha_du alpha_pr  ls
  20  1.3023755e+01 3.50e-03 4.29e+11  -9.0 5.12e+03    -  1.00e+00 9.82e-01f  1
  21  1.3020942e+01 2.81e-06 1.95e-02  -9.0 5.01e+01    -  1.00e+00 1.00e+00h  1
  22  1.3020943e+01 1.49e-11 6.62e-08  -9.0 1.74e-03    -  1.00e+00 1.00e+00h  1

Number of Iterations....: 22

                                   (scaled)                 (unscaled)
Objective...............:   1.3020942541534962e+01    1.3020942541534962e+01
Dual infeasibility......:   6.6196185176292506e-08    6.6196185176292506e-08
Constraint violation....:   1.4914069978999578e-11    1.4914069978999578e-11
Complementarity.........:   1.6792799076280156e-09    1.6792799076280156e-09
Overall NLP error.......:   4.6846463492847154e-10    6.6196185176292506e-08


Number of objective function evaluations             = 136
Number of objective gradient evaluations             = 23
Number of equality constraint evaluations            = 136
Number of inequality constraint evaluations          = 0
Number of equality constraint Jacobian evaluations   = 23
Number of inequality constraint Jacobian evaluations = 0
Number of Lagrangian Hessian evaluations             = 22
Total CPU secs in IPOPT (w/o function evaluations)   =      0.055
Total CPU secs in NLP function evaluations           =      1.249

EXIT: Optimal Solution Found.
